<number of tasks>
28

<cycle time>
256

<task times>
1 70
2 59
3 33
4 6
5 1
6 27
7 17
8 62
9 31
10 53
11 21
12 19
13 108
14 52
15 5
16 8
17 97
18 8
19 47
20 67
21 17
22 8
23 3
24 21
25 107
26 3
27 2
28 72

<precedence relations>
1,2
1,3
1,4
1,5
1,8
1,19
1,21
1,22
1,23
1,24
1,26
2,6
2,17
3,28
4,28
5,28
6,7
7,18
8,9
9,10
10,11
10,12
11,15
12,13
13,14
13,16
14,28
15,28
16,28
17,28
18,28
19,20
20,28
21,28
22,28
23,28
24,25
25,28
26,27
27,28

<setup times forward>
1,3:3
1,4:3
1,5:1
1,19:2
1,21:2
1,23:1
2,3:3
2,4:3
2,5:1
2,6:3
2,10:3
2,11:3
2,12:3
2,13:2
2,14:1
2,15:1
2,16:1
2,17:3
2,19:2
2,20:2
2,21:2
2,23:1
2,25:1
3,2:3
3,5:2
3,7:5
3,8:3
3,9:3
3,13:5
3,14:2
3,15:2
3,16:2
3,18:2
3,19:5
3,20:5
3,21:5
3,22:3
3,23:2
3,24:3
3,25:2
3,26:3
3,27:3
3,28:2
4,2:3
4,5:2
4,7:5
4,8:3
4,9:3
4,13:5
4,14:2
4,15:2
4,16:2
4,18:2
4,19:5
4,20:5
4,21:5
4,22:3
4,23:2
4,24:3
4,25:2
4,26:3
4,27:3
4,28:2
5,2:1
5,3:2
5,4:2
5,6:2
5,7:3
5,8:1
5,9:1
5,10:2
5,11:2
5,12:2
5,13:3
5,17:2
5,19:3
5,20:3
5,21:3
5,22:1
5,24:1
5,26:1
5,27:1
6,5:2
6,7:5
6,8:3
6,9:3
6,13:5
6,14:2
6,15:2
6,16:2
6,19:5
6,20:5
6,21:5
6,22:3
6,23:2
6,24:3
6,25:2
6,26:3
6,27:3
7,3:5
7,4:5
7,5:3
7,8:2
7,9:2
7,10:5
7,11:5
7,12:5
7,14:3
7,15:3
7,16:3
7,17:5
7,18:3
7,22:2
7,23:3
7,24:2
7,25:3
7,26:2
7,27:2
8,3:3
8,4:3
8,5:1
8,6:3
8,7:2
8,17:3
8,18:1
8,19:2
8,20:2
8,21:2
8,23:1
8,25:1
9,3:3
9,4:3
9,5:1
9,6:3
9,7:2
9,10:3
9,17:3
9,18:1
9,19:2
9,20:2
9,21:2
9,23:1
9,25:1
10,2:3
10,5:2
10,7:5
10,18:2
10,19:5
10,20:5
10,21:5
10,22:3
10,23:2
10,24:3
10,25:2
10,26:3
10,27:3
11,2:3
11,5:2
11,7:5
11,13:5
11,14:2
11,15:2
11,16:2
11,18:2
11,19:5
11,20:5
11,21:5
11,22:3
11,23:2
11,24:3
11,25:2
11,26:3
11,27:3
12,2:3
12,5:2
12,7:5
12,13:5
12,15:2
12,18:2
12,19:5
12,20:5
12,21:5
12,22:3
12,23:2
12,24:3
12,25:2
12,26:3
12,27:3
13,2:2
13,3:5
13,4:5
13,5:3
13,6:5
13,11:5
13,14:3
13,15:3
13,16:3
13,17:5
13,18:3
13,22:2
13,23:3
13,24:2
13,25:3
13,26:2
13,27:2
14,2:1
14,3:2
14,4:2
14,6:2
14,7:3
14,11:2
14,17:2
14,19:3
14,20:3
14,21:3
14,22:1
14,24:1
14,26:1
14,27:1
15,2:1
15,3:2
15,4:2
15,6:2
15,7:3
15,12:2
15,13:3
15,17:2
15,19:3
15,20:3
15,21:3
15,22:1
15,24:1
15,26:1
15,27:1
16,2:1
16,3:2
16,4:2
16,6:2
16,7:3
16,11:2
16,17:2
16,19:3
16,20:3
16,21:3
16,22:1
16,24:1
16,26:1
16,27:1
17,5:2
17,7:5
17,8:3
17,9:3
17,13:5
17,14:2
17,15:2
17,16:2
17,18:2
17,19:5
17,20:5
17,21:5
17,22:3
17,23:2
17,24:3
17,25:2
17,26:3
17,27:3
17,28:2
18,3:2
18,4:2
18,8:1
18,9:1
18,10:2
18,11:2
18,12:2
18,13:3
18,17:2
18,19:3
18,20:3
18,21:3
18,22:1
18,24:1
18,26:1
18,27:1
19,2:2
19,3:5
19,4:5
19,5:3
19,6:5
19,8:2
19,9:2
19,10:5
19,11:5
19,12:5
19,14:3
19,15:3
19,16:3
19,17:5
19,18:3
19,22:2
19,23:3
19,24:2
19,25:3
19,26:2
19,27:2
20,2:2
20,3:5
20,4:5
20,5:3
20,6:5
20,8:2
20,9:2
20,10:5
20,11:5
20,12:5
20,14:3
20,15:3
20,16:3
20,17:5
20,18:3
20,22:2
20,23:3
20,24:2
20,25:3
20,26:2
20,27:2
20,28:3
21,2:2
21,3:5
21,4:5
21,5:3
21,6:5
21,8:2
21,9:2
21,10:5
21,11:5
21,12:5
21,14:3
21,15:3
21,16:3
21,17:5
21,18:3
21,22:2
21,23:3
21,24:2
21,25:3
21,26:2
21,27:2
21,28:3
22,3:3
22,4:3
22,5:1
22,6:3
22,7:2
22,10:3
22,11:3
22,12:3
22,13:2
22,14:1
22,15:1
22,16:1
22,17:3
22,18:1
22,19:2
22,20:2
22,21:2
22,23:1
22,25:1
22,28:1
23,2:1
23,3:2
23,4:2
23,6:2
23,7:3
23,8:1
23,9:1
23,10:2
23,11:2
23,12:2
23,13:3
23,17:2
23,19:3
23,20:3
23,21:3
23,22:1
23,24:1
23,26:1
23,27:1
24,3:3
24,4:3
24,5:1
24,6:3
24,7:2
24,10:3
24,11:3
24,12:3
24,13:2
24,14:1
24,15:1
24,16:1
24,17:3
24,18:1
24,19:2
24,20:2
24,21:2
24,23:1
24,25:1
25,2:1
25,3:2
25,4:2
25,6:2
25,7:3
25,8:1
25,9:1
25,10:2
25,11:2
25,12:2
25,13:3
25,17:2
25,19:3
25,20:3
25,21:3
25,22:1
25,26:1
25,27:1
26,3:3
26,4:3
26,5:1
26,6:3
26,7:2
26,10:3
26,11:3
26,12:3
26,13:2
26,14:1
26,15:1
26,16:1
26,17:3
26,18:1
26,19:2
26,20:2
26,21:2
26,23:1
26,25:1
27,3:3
27,4:3
27,5:1
27,6:3
27,7:2
27,10:3
27,11:3
27,12:3
27,13:2
27,14:1
27,15:1
27,16:1
27,17:3
27,18:1
27,19:2
27,20:2
27,21:2
27,23:1
27,25:1
27,28:1

<setup times backward>
2,13:2
2,19:2
2,20:2
2,21:2
3,1:3
3,2:3
3,5:2
3,7:5
3,8:3
3,9:3
3,13:5
3,14:2
3,15:2
3,16:2
3,18:2
3,19:5
3,20:5
3,21:5
3,22:3
3,23:2
3,24:3
3,25:2
3,26:3
3,27:3
4,1:3
4,2:3
4,5:2
4,7:5
4,8:3
4,9:3
4,13:5
4,14:2
4,15:2
4,16:2
4,18:2
4,19:5
4,20:5
4,21:5
4,22:3
4,23:2
4,24:3
4,25:2
4,26:3
4,27:3
5,1:1
5,2:1
5,7:3
5,8:1
5,9:1
5,13:3
5,19:3
5,20:3
5,21:3
5,22:1
5,24:1
5,26:1
5,27:1
6,1:3
6,2:3
6,5:2
6,8:3
6,9:3
6,13:5
6,14:2
6,15:2
6,16:2
6,19:5
6,20:5
6,21:5
6,22:3
6,23:2
6,24:3
6,25:2
6,26:3
6,27:3
8,7:2
8,19:2
8,20:2
8,21:2
9,7:2
9,19:2
9,20:2
9,21:2
10,1:3
10,2:3
10,5:2
10,7:5
10,8:3
10,9:3
10,18:2
10,19:5
10,20:5
10,21:5
10,22:3
10,23:2
10,24:3
10,25:2
10,26:3
10,27:3
11,1:3
11,2:3
11,5:2
11,7:5
11,8:3
11,9:3
11,13:5
11,14:2
11,16:2
11,18:2
11,19:5
11,20:5
11,21:5
11,22:3
11,23:2
11,24:3
11,25:2
11,26:3
11,27:3
12,1:3
12,2:3
12,5:2
12,7:5
12,8:3
12,9:3
12,15:2
12,18:2
12,19:5
12,20:5
12,21:5
12,22:3
12,23:2
12,24:3
12,25:2
12,26:3
12,27:3
14,1:1
14,2:1
14,7:3
14,8:1
14,9:1
14,13:3
14,19:3
14,20:3
14,21:3
14,22:1
14,24:1
14,26:1
14,27:1
15,1:1
15,2:1
15,7:3
15,8:1
15,9:1
15,13:3
15,19:3
15,20:3
15,21:3
15,22:1
15,24:1
15,26:1
15,27:1
16,1:1
16,2:1
16,7:3
16,8:1
16,9:1
16,13:3
16,19:3
16,20:3
16,21:3
16,22:1
16,24:1
16,26:1
16,27:1
17,1:3
17,2:3
17,5:2
17,7:5
17,8:3
17,9:3
17,13:5
17,14:2
17,15:2
17,16:2
17,18:2
17,19:5
17,20:5
17,21:5
17,22:3
17,23:2
17,24:3
17,25:2
17,26:3
17,27:3
18,1:1
18,2:1
18,7:3
18,8:1
18,9:1
18,13:3
18,19:3
18,20:3
18,21:3
18,22:1
18,24:1
18,26:1
18,27:1
22,7:2
22,13:2
22,19:2
22,20:2
22,21:2
23,1:1
23,2:1
23,7:3
23,8:1
23,9:1
23,13:3
23,19:3
23,20:3
23,21:3
23,22:1
23,24:1
23,26:1
23,27:1
24,7:2
24,13:2
24,19:2
24,20:2
24,21:2
25,1:1
25,2:1
25,7:3
25,8:1
25,9:1
25,13:3
25,19:3
25,20:3
25,21:3
25,22:1
25,24:1
25,26:1
25,27:1
26,7:2
26,13:2
26,19:2
26,20:2
26,21:2
27,7:2
27,13:2
27,19:2
27,20:2
27,21:2
28,1:1
28,2:1
28,7:3
28,8:1
28,9:1
28,13:3
28,19:3
28,20:3
28,21:3
28,22:1
28,24:1
28,26:1
28,27:1

<end>

<optimal SALBP-1 value>
4


<rand seed>
467321153

